;symbolic execution tree
(push)
(assert (le x0 java.lang.Object))
(check-sat)
(push)
(assert (le x1 java.lang.Object))
(check-sat)
(push)
(assert (le x2 java.lang.Object))
(check-sat)
(push)
(assert (le x3 java.lang.Object))
(check-sat)
(push)
(assert (le x4 java.lang.Object))
(check-sat)
(push)
(assert (le x5 java.lang.Object))
(check-sat)
(push)
(assert (le x6 java.lang.Object))
(check-sat)
(push)
(assert (le x7 java.lang.Object))
(check-sat)
(push)
(assert (le x8 java.lang.Object))
(check-sat)
(push)
(assert (le x9 java.lang.Object))
(check-sat)
(push)
(assert (le x10 java.lang.Object))
(check-sat)
(push)
(assert (le x11 java.lang.Object))
(check-sat)
(push)
(assert (le x12 java.lang.Object))
(check-sat)
(push)
(assert (le x13 java.lang.Object))
(check-sat)
(push)
(assert (le x14 java.lang.Object))
(check-sat)
(push)
(assert (le x15 java.lang.Object))
(check-sat)
(push)
(assert (= x8 java.lang.String))
(check-sat)
(pop)
(push)
(assert (not (= x8 java.lang.String)))
(check-sat)
(push)
(assert (le x15 siena.ByteBuf))
(check-sat)
(push)
(assert (le x14 siena.ByteBuf))
(check-sat)
(pop)
(push)
(assert (not (le x14 siena.ByteBuf)))
(check-sat)
(pop)
(push)
(assert (= x9 java.lang.String))
(check-sat)
(push)
(assert (le x10 siena.Event))
(check-sat)
(pop)
(push)
(assert (not (le x10 siena.Event)))
(check-sat)
(pop)
(pop)
(push)
(assert (not (= x9 java.lang.String)))
(check-sat)
(pop)
(pop)
(push)
(assert (not (le x15 siena.ByteBuf)))
(check-sat)
(pop)
(push)
(assert (= x5 java.lang.String))
(check-sat)
(push)
(assert (le x11 java.lang.Throwable))
(check-sat)
(push)
(assert (= x8 java.lang.String))
(check-sat)
(pop)
(push)
(assert (not (= x8 java.lang.String)))
(check-sat)
(pop)
(push)
(assert (= x10 java.lang.String))
(check-sat)
(push)
(assert (le x6 siena.Tokenizer))
(check-sat)
(pop)
(push)
(assert (not (le x6 siena.Tokenizer)))
(check-sat)
(pop)
(pop)
(push)
(assert (not (= x10 java.lang.String)))
(check-sat)
(pop)
(pop)
(push)
(assert (not (le x11 java.lang.Throwable)))
(check-sat)
(push)
(assert (le x10 java.util.Set))
(check-sat)
(pop)
(push)
(assert (not (le x10 java.util.Set)))
(check-sat)
(pop)
(push)
(assert (le x1 java.util.Set))
(check-sat)
(push)
(assert (le x12 siena.AttributeValue))
(check-sat)
(pop)
(push)
(assert (not (le x12 siena.AttributeValue)))
(check-sat)
(pop)
(pop)
(push)
(assert (not (le x1 java.util.Set)))
(check-sat)
(pop)
(pop)
(push)
(assert (le x13 siena.Tokenizer))
(check-sat)
(pop)
(push)
(assert (not (le x13 siena.Tokenizer)))
(check-sat)
(pop)
(push)
(assert (le x7 siena.Tokenizer))
(check-sat)
(pop)
(push)
(assert (not (le x7 siena.Tokenizer)))
(check-sat)
(pop)
(pop)
(push)
(assert (not (= x5 java.lang.String)))
(check-sat)
(push)
(assert (le x0 siena.AttributeValue))
(check-sat)
(pop)
(push)
(assert (not (le x0 siena.AttributeValue)))
(check-sat)
(pop)
(push)
(assert (= x7 java.lang.Byte))
(check-sat)
(pop)
(push)
(assert (not (= x7 java.lang.Byte)))
(check-sat)
(push)
(assert (= x13 java.lang.String))
(check-sat)
(pop)
(push)
(assert (not (= x13 java.lang.String)))
(check-sat)
(pop)
(push)
(assert (= x15 java.lang.String))
(check-sat)
(pop)
(push)
(assert (not (= x15 java.lang.String)))
(check-sat)
(pop)
(pop)
(push)
(assert (le x15 siena.AttributeValue))
(check-sat)
(pop)
(push)
(assert (not (le x15 siena.AttributeValue)))
(check-sat)
(pop)
(pop)
(push)
(assert (= x2 java.lang.String))
(check-sat)
(pop)
(push)
(assert (not (= x2 java.lang.String)))
(check-sat)
(pop)
(push)
(assert (= x10 java.lang.Long))
(check-sat)
(push)
(assert (le x5 java.io.BufferedReader))
(check-sat)
(push)
(assert (= x3 java.lang.String))
(check-sat)
(pop)
(push)
(assert (not (= x3 java.lang.String)))
(check-sat)
(pop)
(pop)
(push)
(assert (not (le x5 java.io.BufferedReader)))
(check-sat)
(push)
(assert (le x12 siena.ByteBuf))
(check-sat)
(pop)
(push)
(assert (not (le x12 siena.ByteBuf)))
(check-sat)
(pop)
(push)
(assert (le x13 java.io.PrintStream))
(check-sat)
(pop)
(push)
(assert (not (le x13 java.io.PrintStream)))
(check-sat)
(pop)
(push)
(assert (le x2 siena.AttributeConstraint))
(check-sat)
(pop)
(push)
(assert (not (le x2 siena.AttributeConstraint)))
(check-sat)
(pop)
(push)
(assert (le x0 siena.AttributeValue))
(check-sat)
(pop)
(push)
(assert (not (le x0 siena.AttributeValue)))
(check-sat)
(pop)
(pop)
(pop)
(push)
(assert (not (= x10 java.lang.Long)))
(check-sat)
(push)
(assert (= x0 java.lang.StringBuilder))
(check-sat)
(pop)
(push)
(assert (not (= x0 java.lang.StringBuilder)))
(check-sat)
(push)
(assert (= x3 java.lang.String))
(check-sat)
(pop)
(push)
(assert (not (= x3 java.lang.String)))
(check-sat)
(pop)
(push)
(assert (= x10 java.lang.Long))
(check-sat)
(pop)
(push)
(assert (not (= x10 java.lang.Long)))
(check-sat)
(pop)
(push)
(assert (= x5 java.lang.String))
(check-sat)
(pop)
(push)
(assert (not (= x5 java.lang.String)))
(check-sat)
(pop)
(push)
(assert (= x2 java.lang.String))
(check-sat)
(pop)
(push)
(assert (not (= x2 java.lang.String)))
(check-sat)
(pop)
(push)
(assert (le x7 siena.AttributeValue))
(check-sat)
(pop)
(push)
(assert (not (le x7 siena.AttributeValue)))
(check-sat)
(pop)
(pop)
(push)
(assert (le x12 siena.Filter))
(check-sat)
(push)
(assert (le x6 siena.AttributeValue))
(check-sat)
(push)
(assert (= x10 java.lang.Long))
(check-sat)
(pop)
(push)
(assert (not (= x10 java.lang.Long)))
(check-sat)
(pop)
(pop)
(push)
(assert (not (le x6 siena.AttributeValue)))
(check-sat)
(pop)
(push)
(assert (le x14 java.io.PrintStream))
(check-sat)
(pop)
(push)
(assert (not (le x14 java.io.PrintStream)))
(check-sat)
(pop)
(pop)
(push)
(assert (not (le x12 siena.Filter)))
(check-sat)
(pop)
(pop)
(push)
(assert (= x5 java.lang.String))
(check-sat)
(pop)
(push)
(assert (not (= x5 java.lang.String)))
(check-sat)
(push)
(assert (= x13 java.lang.String))
(check-sat)
(pop)
(push)
(assert (not (= x13 java.lang.String)))
(check-sat)
(pop)
(pop)
(push)
(assert (le x13 siena.AttributeValue))
(check-sat)
(push)
(assert (le x7 siena.ByteBuf))
(check-sat)
(pop)
(push)
(assert (not (le x7 siena.ByteBuf)))
(check-sat)
(push)
(assert (= x6 java.lang.String))
(check-sat)
(pop)
(push)
(assert (not (= x6 java.lang.String)))
(check-sat)
(pop)
(pop)
(pop)
(push)
(assert (not (le x13 siena.AttributeValue)))
(check-sat)
(push)
(assert (le x6 siena.AttributeValue))
(check-sat)
(push)
(assert (le x15 siena.HierarchicalDispatcher))
(check-sat)
(pop)
(push)
(assert (not (le x15 siena.HierarchicalDispatcher)))
(check-sat)
(pop)
(pop)
(push)
(assert (not (le x6 siena.AttributeValue)))
(check-sat)
(push)
(assert (= x15 java.lang.String))
(check-sat)
(pop)
(push)
(assert (not (= x15 java.lang.String)))
(check-sat)
(pop)
(push)
(assert (le x10 siena.AttributeValue))
(check-sat)
(push)
(assert (= x9 java.lang.String))
(check-sat)
(pop)
(push)
(assert (not (= x9 java.lang.String)))
(check-sat)
(pop)
(pop)
(push)
(assert (not (le x10 siena.AttributeValue)))
(check-sat)
(pop)
(pop)
(pop)
(push)
(assert (le x6 siena.AttributeValue))
(check-sat)
(push)
(assert (le x0 siena.Event))
(check-sat)
(pop)
(push)
(assert (not (le x0 siena.Event)))
(check-sat)
(push)
(assert (le x11 java.io.PrintStream))
(check-sat)
(pop)
(push)
(assert (not (le x11 java.io.PrintStream)))
(check-sat)
(pop)
(push)
(assert (= x8 java.lang.String))
(check-sat)
(pop)
(push)
(assert (not (= x8 java.lang.String)))
(check-sat)
(pop)
(pop)
(pop)
(push)
(assert (not (le x6 siena.AttributeValue)))
(check-sat)
(push)
(assert (= x9 java.lang.String))
(check-sat)
(pop)
(push)
(assert (not (= x9 java.lang.String)))
(check-sat)
(pop)
(pop)
(push)
(assert (le x5 siena.Poset))
(check-sat)
(pop)
(push)
(assert (not (le x5 siena.Poset)))
(check-sat)
(push)
(assert (le x9 siena.Event))
(check-sat)
(push)
(assert (le x13 siena.AttributeConstraint))
(check-sat)
(pop)
(push)
(assert (not (le x13 siena.AttributeConstraint)))
(check-sat)
(pop)
(pop)
(push)
(assert (not (le x9 siena.Event)))
(check-sat)
(pop)
(pop)
(push)
(assert (le x6 java.io.File))
(check-sat)
(pop)
(push)
(assert (= x6 java.lang.String))
(check-sat)
(push)
(assert (= x15 java.lang.StringBuilder))
(check-sat)
(push)
(assert (le x1 siena.AttributeValue))
(check-sat)
(pop)
(push)
(assert (not (le x1 siena.AttributeValue)))
(check-sat)
(pop)
(push)
(assert (le x11 siena.Tokenizer))
(check-sat)
(pop)
(push)
(assert (not (le x11 siena.Tokenizer)))
(check-sat)
(pop)
(pop)
(push)
(assert (not (= x15 java.lang.StringBuilder)))
(check-sat)
(pop)
(push)
(assert (le x6 java.lang.Object))
(check-sat)
(pop)
(push)
(assert (not (le x6 java.lang.Object)))
(check-sat)
(pop)
(pop)
(push)
(assert (le x6 java.util.AbstractMap))
(check-sat)
(push)
(assert (= x15 java.lang.String))
(check-sat)
(pop)
(push)
(assert (not (= x15 java.lang.String)))
(check-sat)
(pop)
(push)
(assert (= x3 java.lang.String))
(check-sat)
(pop)
(push)
(assert (not (= x3 java.lang.String)))
(check-sat)
(pop)
(push)
(assert (= x8 java.lang.String))
(check-sat)
(pop)
(push)
(assert (not (= x8 java.lang.String)))
(check-sat)
(push)
(assert (le x13 siena.AttributeConstraint))
(check-sat)
(push)
(assert (le x6 java.lang.Object))
(check-sat)
(pop)
(push)
(assert (not (le x6 java.lang.Object)))
(check-sat)
(pop)
(pop)
(push)
(assert (not (le x13 siena.AttributeConstraint)))
(check-sat)
(pop)
(pop)
(push)
(assert (le x2 java.io.PrintStream))
(check-sat)
(pop)
(push)
(assert (not (le x2 java.io.PrintStream)))
(check-sat)
(pop)
(pop)
(push)
(assert (= x6 java.lang.Byte))
(check-sat)
(pop)
(push)
(assert (= x6 java.lang.Double))
(check-sat)
(pop)
(push)
(assert (= x6 java.lang.Long))
(check-sat)
(pop)
(push)
(assert (le x6 java.util.AbstractList))
(check-sat)
(push)
(assert (le x1 siena.ByteBuf))
(check-sat)
(push)
(assert (le x11 siena.Event))
(check-sat)
(pop)
(push)
(assert (not (le x11 siena.Event)))
(check-sat)
(pop)
(push)
(assert (= x3 java.lang.String))
(check-sat)
(pop)
(push)
(assert (not (= x3 java.lang.String)))
(check-sat)
(pop)
(pop)
(push)
(assert (not (le x1 siena.ByteBuf)))
(check-sat)
(pop)
(push)
(assert (= x11 java.lang.StringBuilder))
(check-sat)
(push)
(assert (= x7 java.lang.StringBuilder))
(check-sat)
(push)
(assert (= x13 java.lang.String))
(check-sat)
(pop)
(push)
(assert (not (= x13 java.lang.String)))
(check-sat)
(pop)
(pop)
(push)
(assert (not (= x7 java.lang.StringBuilder)))
(check-sat)
(pop)
(pop)
(push)
(assert (not (= x11 java.lang.StringBuilder)))
(check-sat)
(pop)
(pop)
(push)
(assert (le x6 java.net.InetAddress))
(check-sat)
(push)
(assert (le x5 siena.Tokenizer))
(check-sat)
(push)
(assert (le x1 java.lang.Thread))
(check-sat)
(pop)
(push)
(assert (not (le x1 java.lang.Thread)))
(check-sat)
(pop)
(push)
(assert (le x3 siena.AttributeValue))
(check-sat)
(pop)
(push)
(assert (not (le x3 siena.AttributeValue)))
(check-sat)
(pop)
(push)
(assert (le x11 siena.Event))
(check-sat)
(pop)
(push)
(assert (not (le x11 siena.Event)))
(check-sat)
(pop)
(push)
(assert (= x8 java.lang.String))
(check-sat)
(pop)
(push)
(assert (not (= x8 java.lang.String)))
(check-sat)
(pop)
(push)
(assert (= x8 java.lang.String))
(check-sat)
(pop)
(push)
(assert (not (= x8 java.lang.String)))
(check-sat)
(pop)
(pop)
(push)
(assert (not (le x5 siena.Tokenizer)))
(check-sat)
(push)
(assert (le x0 siena.Filter))
(check-sat)
(push)
(assert (= x10 java.lang.StringBuilder))
(check-sat)
(pop)
(push)
(assert (not (= x10 java.lang.StringBuilder)))
(check-sat)
(pop)
(pop)
(push)
(assert (not (le x0 siena.Filter)))
(check-sat)
(pop)
(push)
(assert (le x14 siena.AttributeConstraint))
(check-sat)
(pop)
(push)
(assert (not (le x14 siena.AttributeConstraint)))
(check-sat)
(pop)
(pop)
(push)
(assert (= x2 java.lang.String))
(check-sat)
(pop)
(push)
(assert (not (= x2 java.lang.String)))
(check-sat)
(push)
(assert (le x7 siena.AttributeValue))
(check-sat)
(pop)
(push)
(assert (not (le x7 siena.AttributeValue)))
(check-sat)
(pop)
(push)
(assert (le x14 siena.Event))
(check-sat)
(pop)
(push)
(assert (not (le x14 siena.Event)))
(check-sat)
(pop)
(push)
(assert (= x7 java.lang.StringBuilder))
(check-sat)
(pop)
(push)
(assert (not (= x7 java.lang.StringBuilder)))
(check-sat)
(pop)
(pop)
(pop)
(push)
(assert (not (le x6 siena.AttributeValue)))
(check-sat)
(push)
(assert (not (le x6 siena.Subscriber)))
(check-sat)
(push)
(assert (not (le x6 siena.AttributeConstraint)))
(check-sat)
(push)
(assert (not (le x6 java.net.InetAddress)))
(check-sat)
(push)
(assert (le x6 java.lang.Object))
(check-sat)
(push)
(assert (not (le x6 java.util.AbstractMap)))
(check-sat)
(push)
(assert (not (= x6 java.lang.String)))
(check-sat)
(push)
(assert (not (le x6 java.io.File)))
(check-sat)
(pop)
(pop)
(pop)
(pop)
(pop)
(pop)
(pop)
(pop)
(push)
(assert (le x6 siena.AttributeValue))
(check-sat)
(pop)
(push)
(assert (le x6 siena.Subscriber))
(check-sat)
(pop)
(push)
(assert (= x6 java.lang.Integer))
(check-sat)
(pop)
(push)
(assert (le x6 java.util.AbstractSet))
(check-sat)
(pop)
(push)
(assert (le x6 siena.AttributeConstraint))
(check-sat)
(pop)
(push)
(assert (= x0 java.lang.Byte))
(check-sat)
(push)
(assert (= x5 java.lang.String))
(check-sat)
(pop)
(push)
(assert (not (= x5 java.lang.String)))
(check-sat)
(push)
(assert (le x4 siena.AttributeValue))
(check-sat)
(pop)
(push)
(assert (not (le x4 siena.AttributeValue)))
(check-sat)
(push)
(assert (= x7 java.lang.Long))
(check-sat)
(pop)
(push)
(assert (= x7 java.lang.String))
(check-sat)
(pop)
(push)
(assert (le x7 siena.Subscriber))
(check-sat)
(pop)
(push)
(assert (= x7 java.lang.Integer))
(check-sat)
(pop)
(push)
(assert (le x7 java.net.InetAddress))
(check-sat)
(pop)
(push)
(assert (le x7 siena.AttributeValue))
(check-sat)
(pop)
(push)
(assert (le x7 java.io.File))
(check-sat)
(pop)
(push)
(assert (le x7 java.util.AbstractList))
(check-sat)
(pop)
(push)
(assert (le x7 siena.AttributeConstraint))
(check-sat)
(pop)
(push)
(assert (le x7 java.util.AbstractSet))
(check-sat)
(pop)
(push)
(assert (le x7 java.util.AbstractMap))
(check-sat)
(pop)
(push)
(assert (= x7 java.lang.Byte))
(check-sat)
(pop)
(push)
(assert (= x7 java.lang.Double))
(check-sat)
(pop)
(push)
(assert (not (le x7 java.net.InetAddress)))
(check-sat)
(push)
(assert (le x7 java.lang.Object))
(check-sat)
(push)
(assert (not (le x7 siena.Subscriber)))
(check-sat)
(push)
(assert (not (le x7 java.util.AbstractMap)))
(check-sat)
(push)
(assert (not (le x7 siena.AttributeConstraint)))
(check-sat)
(push)
(assert (not (le x7 siena.AttributeValue)))
(check-sat)
(push)
(assert (not (le x7 java.io.File)))
(check-sat)
(push)
(assert (not (= x7 java.lang.String)))
(check-sat)
(pop)
(pop)
(pop)
(pop)
(pop)
(pop)
(pop)
(pop)
(pop)
(pop)
(push)
(assert (le x9 siena.Poset))
(check-sat)
(push)
(assert (= x12 java.lang.StringBuilder))
(check-sat)
(push)
(assert (le x13 java.io.PrintStream))
(check-sat)
(pop)
(push)
(assert (not (le x13 java.io.PrintStream)))
(check-sat)
(pop)
(pop)
(push)
(assert (not (= x12 java.lang.StringBuilder)))
(check-sat)
(pop)
(pop)
(push)
(assert (not (le x9 siena.Poset)))
(check-sat)
(pop)
(pop)
(push)
(assert (not (= x0 java.lang.Byte)))
(check-sat)
(pop)
(pop)
